#######################################
### Exact MIP solver for the HHCRSP ###
#######################################
-- Instance file: new-instances/HHCRSP_100_20_91_1.0_R_RC.txt
-- Max threads: 4
-- Time limit: 999999 seconds
-- Use initial solution: No
Trivial flow violations prevented generating 44893 variables.
Model exported.
Version identifier: 20.1.0.0 | 2020-11-10 | 9bedb6d68
CPXPARAM_Threads                                 4
CPXPARAM_TimeLimit                               999999
Parallel mode: deterministic, using up to 4 threads for concurrent optimization:
 * Starting dual Simplex on 1 thread...
 * Starting Barrier on 3 threads...
Tried aggregator 1 time.
LP Presolve eliminated 5190 rows and 1314 columns.
Reduced LP has 48230 rows, 46314 columns, and 542725 nonzeros.
Presolve time = 0.28 sec. (141.38 ticks)
Symmetry aggregator did 54543 additional substitutions.

Iteration log . . .
Iteration:     1   Dual objective     =             0.000000
Iteration:   457   Dual objective     =           174.333333

Dual crossover.
  Dual:  Fixing 252 variables.
      251 DMoves:  Infeasibility  6.06181899e-14  Objective  1.74333333e+02
        0 DMoves:  Infeasibility  4.19664430e-14  Objective  1.74333333e+02
  Dual:  Pushed 11, exchanged 241.
  Primal:  Fixing 114 variables.
      113 PMoves:  Infeasibility  1.11022302e-16  Objective  1.74333333e+02
        0 PMoves:  Infeasibility  2.22044605e-16  Objective  1.74333333e+02
  Primal:  Pushed 70, exchanged 44.

Dual simplex solved model.


Solution status from MIP model:
-- Processing time: 0.477 sec.
-- Memory used: 120.268 MB
-- Best bound: inf
-- Obj value: 174.333
-- Gap: inf%
-- Total distance: 523
-- Total tardiness: 0
-- Largest tardiness: 0
